
Gurobi 6.0.4 (win64) logging started 06/14/15 16:32:59

Read LP format model from file E:\Eigene Dateien\Downloads\Michi shit\VRPTWMS-master\VRPTWMS\instances\mip\fuel\N7-C_DV100-C_SV25_F5_2_No_1.lp
Reading time = 0.00 seconds
(null): 330 rows, 169 columns, 1326 nonzeros
Optimize a model with 330 rows, 169 columns and 1326 nonzeros
Model has 392 quadratic constraints
WARNING: Only barrier available for SOCP models
Coefficient statistics:
  Matrix range    [1e+00, 1e+02]
  Objective range [8e+00, 1e+03]
  Bounds range    [1e+00, 1e+02]
  RHS range       [1e+00, 1e+02]
Presolve removed 25 rows and 9 columns
Presolve time: 0.03s
Presolved: 1078 rows, 569 columns, 5259 nonzeros
Variable types: 364 continuous, 205 integer (167 binary)
Found heuristic solution: objective 8328.4400000
Optimize a model with 1078 rows, 569 columns and 5259 nonzeros
Coefficient statistics:
  Matrix range    [1e+00, 1e+02]
  Objective range [8e+00, 1e+03]
  Bounds range    [1e+00, 1e+02]
  RHS range       [1e+00, 1e+02]

Concurrent LP optimizer: dual simplex and barrier
Showing barrier log only...

Presolve removed 122 rows and 82 columns
Presolved: 956 rows, 487 columns, 4725 nonzeros

Root barrier log...

Ordering time: 0.01s

Barrier performed 0 iterations in 0.05 seconds
Barrier solve interrupted - model solved by another algorithm


Solved with dual simplex
Solved in 45 iterations and 0.05 seconds
Optimal objective  1.048722267e+02

Root relaxation: objective 1.048722e+02, 45 iterations, 0.02 seconds

    Nodes    |    Current Node    |     Objective Bounds      |     Work
 Expl Unexpl |  Obj  Depth IntInf | Incumbent    BestBd   Gap | It/Node Time

     0     0  104.87223    0   20 8328.44000  104.87223  98.7%     -    0s
H    0     0                    4234.3700000  104.87223  97.5%     -    0s
     0     0  123.36697    0   42 4234.37000  123.36697  97.1%     -    0s
     0     0  126.56957    0   40 4234.37000  126.56957  97.0%     -    0s
     0     0  127.45040    0   35 4234.37000  127.45040  97.0%     -    0s
     0     0  128.18177    0   24 4234.37000  128.18177  97.0%     -    0s
H    0     0                    3246.1100000  128.18177  96.1%     -    0s
     0     0  128.60800    0   35 3246.11000  128.60800  96.0%     -    0s
     0     0  128.60800    0   36 3246.11000  128.60800  96.0%     -    0s
     0     0  128.60800    0   32 3246.11000  128.60800  96.0%     -    0s
     0     2  128.60800    0   32 3246.11000  128.60800  96.0%     -    0s
H   27    25                    3231.4000000  134.00667  95.9%  17.1    0s
H  134    80                    3227.3300000  138.62078  95.7%  22.3    0s
H  374   201                    3220.5400000  143.79876  95.5%  22.5    0s
H  999   518                    3214.0000000  488.21216  84.8%  18.5    0s
H 1048   296                    2195.3900000  488.21216  77.8%  18.0    0s
H 2407   403                    2185.9200000 1139.25781  47.9%  28.7    1s

Cutting planes:
  Learned: 2
  Cover: 4
  Implied bound: 4
  Clique: 2
  MIR: 2
  GUB cover: 5

Explored 5899 nodes (212556 simplex iterations) in 3.38 seconds
Thread count was 4 (of 4 available processors)

Optimal solution found (tolerance 1.00e-04)
Best objective 2.185920000000e+03, best bound 2.185920000000e+03, gap 0.0%
k_c1	10.0
k_c2	6.0
k_c3	100.0
k_c4	12.0
k_c5	92.0
k_c6	2.0
k_c7	95.0
k_dN	-0.0
o_1	0.0
o_2	-0.0
o_3	0.0
o_4	0.0
o_5	-0.0
o_6	-0.0
o_7	0.0
p_1	0.0
p_2	-0.0
p_3	1.0
p_4	1.0
p_5	0.0
p_6	-0.0
p_7	0.0
phi_c1	4.0
phi_c2	3.0
phi_c3	4.0
phi_c4	0.0
phi_c5	2.0
phi_c6	1.0
phi_c7	3.0
phi_dN	-0.0
pi_c1	5.0
pi_c2	20.0
pi_c3	25.0
pi_c4	20.0
pi_c5	25.0
pi_c6	25.0
pi_c7	10.0
pi_dN	-0.0
tauD_c1	62.0
tauD_c2	74.0
tauD_c3	3.0
tauD_c4	44.0
tauD_c5	34.0
tauD_c6	85.0
tauD_c7	25.0
tauD_d0	-0.0
tauD_dN	100.0
tauS_c1	33.0
tauS_c2	54.0
tauS_c3	3.0
tauS_c4	27.0
tauS_c5	45.0
tauS_c6	56.0
tauS_c7	17.0
tauS_d0	-0.0
tauS_dN	66.0
x_c1_c2	1.0
x_c2_c6	1.0
x_c3_c7	1.0
x_c4_c1	1.0
x_c5_c4	1.0
x_c6_dN	1.0
x_c7_c5	1.0
x_d0_c3	1.0
z_c3_c4	1.0
z_c4_dN	1.0
z_d0_c3	1.0
